Route #1: 89 60 83 45 17 84 5 99 96 6
Route #2: 59 98 85 93
Route #3: 87 42 14 44 91 100 37 92 97
Route #4: 94 95 13
Route #5: 61 16 86 38 43 15 57 2
Route #6: 58 41 22 75 74 72 73 40
Route #7: 55 25 39 67 23 56 21
Route #8: 53 26 4 54 12 28
Route #9: 68 79 3 77 76
Route #10: 20 66 65 71 35 34 78 29 24 80
Route #11: 50 33 81 9 51 1 27
Route #12: 69 70 30 32 90 63 10 31
Route #13: 18 8 46 36 49 64 11 62 88
Route #14: 82 48 47 19 7 52
Cost 1082
Time 0.283935
